InboundTrucks  = 20;
OutboundTrucks = 13;
InboundDoors   = 2;
OutboundDoors  = 1;
ReleaseTime    = [7,1,8,6,17,17,17,10,10,4,4,12,10,3,5,10,1,1,5,0];
UnloadTime     = [6,10,10,12,8,9,8,11,12,11,9,4,11,3,3,12,11,11,1,3];
LoadTime       = [5,3,4,5,8,3,2,8,11,7,11,8,10];
TransferTime   = [| 2,2,0,0,0,0,1,0,0,1,0,2,2 | 2,2,0,1,0,0,0,0,1,0,0,0,0 | 2,2,0,1,0,1,0,0,1,0,0,2,0 | 0,0,0,1,2,0,0,1,0,2,1,2,1 | 0,2,0,0,0,3,0,3,5,0,0,0,0 | 0,0,0,0,5,0,0,0,0,0,0,5,0 | 0,0,1,0,0,0,0,0,4,0,0,0,1 | 0,0,2,0,0,3,3,0,0,4,4,4,0 | 0,0,0,4,0,0,0,0,0,0,0,1,4 | 0,0,5,3,0,1,0,0,0,0,5,0,4 | 1,0,4,0,1,0,1,2,0,0,0,0,0 | 0,1,5,0,2,0,0,0,0,0,0,4,0 | 0,0,0,2,0,0,2,1,3,0,2,0,0 | 0,2,0,3,1,0,0,0,0,0,0,0,1 | 0,0,2,0,0,1,0,0,0,5,0,0,0 | 5,0,0,0,0,2,0,2,0,1,1,0,2 | 0,0,0,2,1,1,0,0,0,0,4,0,1 | 4,0,1,1,2,2,0,5,0,0,0,0,0 | 0,0,0,4,0,0,0,0,3,0,3,2,0 | 0,5,0,0,0,0,3,0,0,0,0,0,0 |];
